41767.2
41767.2
41767.2
38680.5
38680.5
38680.5
38680.5
38680.5
38680.5
38680.5
38680.5
38680.5
38680.5
38680.5
38496.4
38496.4
37733.6
37733.6
37733.6
37479.3
37479.3
36787
36787
36787
36787
36787
36787
36787
36787
36787
36499.3
36499.3
36499.3
36499.3
35725.4
35725.4
35725.4
35631.9
35631.9
35514.3
35514.3
35514.3
35514.3
35514.3
35514.3
33688.8
33688.8
33688.8
33688.8
33688.8
33688.8
33688.8
33688.8
33398.2
33398.2
33398.2
33398.2
33398.2
33398.2
33398.2
33398.2
33398.2
33391.4
33173.5
33173.5
33000.5
33000.5
32543.3
32543.3
32543.3
32543.3
31952.1
31952.1
31952.1
31952.1
31952.1
31952.1
31764.9
31764.9
31764.9
30606.1
30606.1
30606.1
30606.1
30316.2
30316.2
30316.2
30316.2
30316.2
30316.2
30316.2
30316.2
30316.2
30316.2
30316.2
30316.2
30304.8
30304.8
30043.5
30043.5
